(set-logic QF_SLIA)
(set-option :produce-models true)
(declare-const X String)
; \w*
(assert (not (str.in_re X (re.++ (re.* (re.union (re.range "0" "9") (re.range "A" "Z") (re.range "a" "z") (str.to_re "_"))) (str.to_re "\u{0a}")))))
; tb\x2Efreeprod\x2Ecom\s+Web\.fcgiclvompycem\u{2f}cen\.vcn
(assert (str.in_re X (re.++ (str.to_re "tb.freeprod.com") (re.+ (re.union (str.to_re " ") (str.to_re "\u{09}") (str.to_re "\u{0a}") (str.to_re "\u{0c}") (str.to_re "\u{0d}"))) (str.to_re "Web.fcgiclvompycem/cen.vcn\u{0a}"))))
; /GET\s\/[\w-]{64}\sHTTP\/1\.[^\u{2f}]+Host\u{3a}\u{20}[^\u{3a}]+\u{3a}\d+\u{0d}\u{0a}/
(assert (str.in_re X (re.++ (str.to_re "/GET") (re.union (str.to_re " ") (str.to_re "\u{09}") (str.to_re "\u{0a}") (str.to_re "\u{0c}") (str.to_re "\u{0d}")) (str.to_re "/") ((_ re.loop 64 64) (re.union (str.to_re "-") (re.range "0" "9") (re.range "A" "Z") (re.range "a" "z") (str.to_re "_"))) (re.union (str.to_re " ") (str.to_re "\u{09}") (str.to_re "\u{0a}") (str.to_re "\u{0c}") (str.to_re "\u{0d}")) (str.to_re "HTTP/1.") (re.+ (re.comp (str.to_re "/"))) (str.to_re "Host: ") (re.+ (re.comp (str.to_re ":"))) (str.to_re ":") (re.+ (re.range "0" "9")) (str.to_re "\u{0d}\u{0a}/\u{0a}"))))
; ^([a-z-[dfioquwz]]|[A-Z-[DFIOQUWZ]])\d([a-z-[dfioqu]]|[A-Z-[DFIOQU]])(\s)?\d([a-z-[dfioqu]]|[A-Z-[DFIOQU]])\d$
(assert (not (str.in_re X (re.++ (re.union (re.++ (re.union (re.range "a" "z") (str.to_re "-") (str.to_re "[") (str.to_re "d") (str.to_re "f") (str.to_re "i") (str.to_re "o") (str.to_re "q") (str.to_re "u") (str.to_re "w") (str.to_re "z")) (str.to_re "]")) (re.++ (re.union (re.range "A" "Z") (str.to_re "-") (str.to_re "[") (str.to_re "D") (str.to_re "F") (str.to_re "I") (str.to_re "O") (str.to_re "Q") (str.to_re "U") (str.to_re "W") (str.to_re "Z")) (str.to_re "]"))) (re.range "0" "9") (re.union (re.++ (re.union (re.range "a" "z") (str.to_re "-") (str.to_re "[") (str.to_re "d") (str.to_re "f") (str.to_re "i") (str.to_re "o") (str.to_re "q") (str.to_re "u")) (str.to_re "]")) (re.++ (re.union (re.range "A" "Z") (str.to_re "-") (str.to_re "[") (str.to_re "D") (str.to_re "F") (str.to_re "I") (str.to_re "O") (str.to_re "Q") (str.to_re "U")) (str.to_re "]"))) (re.opt (re.union (str.to_re " ") (str.to_re "\u{09}") (str.to_re "\u{0a}") (str.to_re "\u{0c}") (str.to_re "\u{0d}"))) (re.range "0" "9") (re.union (re.++ (re.union (re.range "a" "z") (str.to_re "-") (str.to_re "[") (str.to_re "d") (str.to_re "f") (str.to_re "i") (str.to_re "o") (str.to_re "q") (str.to_re "u")) (str.to_re "]")) (re.++ (re.union (re.range "A" "Z") (str.to_re "-") (str.to_re "[") (str.to_re "D") (str.to_re "F") (str.to_re "I") (str.to_re "O") (str.to_re "Q") (str.to_re "U")) (str.to_re "]"))) (re.range "0" "9") (str.to_re "\u{0a}")))))
; ^(((\+{1})|(0{2}))98|(0{1}))9[1-9]{1}\d{8}\Z$
(assert (str.in_re X (re.++ (re.union (re.++ (re.union ((_ re.loop 1 1) (str.to_re "+")) ((_ re.loop 2 2) (str.to_re "0"))) (str.to_re "98")) ((_ re.loop 1 1) (str.to_re "0"))) (str.to_re "9") ((_ re.loop 1 1) (re.range "1" "9")) ((_ re.loop 8 8) (re.range "0" "9")) (str.to_re "\u{0a}"))))
(check-sat)
